96058
47931
160805
327712
669835
641629
217974
440321
392662
770449
393740
173186
540512
64361
570798
295881
409337
588360
330634
78755
538362
924281
142921
879985
52462
502892
795069
130032
504461
366989
767287
858275
617635
804610
261238
457631
351952
231426
884730
833779
220392
997517
261814
33458
367227
166539
150691
921438
852590
212293
876593
650738
846088
324154
840856
304203
881737
807135
924365
514165
301300
510519
745105
206030
783150
552842
923491
341081
736447
156293
264214
707362
964213
416558
49533
3721
984359
551681
922434
306540
439447
359916
37526
550069
261041
497060
744898
460733
111344
240994
233181
185371
6752
564222
279702
295438
205502
621478
581425
139970
